
Gurobi 6.5.2 (linux64) logging started Tue Sep 20 21:19:14 2016


Gurobi 6.5.2 (linux64) logging started Tue Sep 20 21:19:14 2016

Optimize a model with 201 rows, 1585 columns and 3297 nonzeros
Coefficient statistics:
  Matrix range    [1e+00, 2e+00]
  Objective range [1e+00, 1e+02]
  Bounds range    [1e+00, 1e+00]
  RHS range       [1e+00, 1e+00]
Presolve removed 67 rows and 27 columns
Presolve time: 0.01s
Presolved: 134 rows, 1558 columns, 3130 nonzeros
Variable types: 0 continuous, 1558 integer (1558 binary)

Root relaxation: objective 1.011500e+03, 134 iterations, 0.00 seconds

    Nodes    |    Current Node    |     Objective Bounds      |     Work
 Expl Unexpl |  Obj  Depth IntInf | Incumbent    BestBd   Gap | It/Node Time

     0     0 1011.50000    0   20          - 1011.50000      -     -    0s
     0     0 1055.00000    0   48          - 1055.00000      -     -    0s
     0     0 1065.50000    0    6          - 1065.50000      -     -    0s
H    0     0                    1637.0000000 1065.50000  34.9%     -    0s
     0     0 1066.16667    0   30 1637.00000 1066.16667  34.9%     -    0s
     0     0 1066.16667    0   30 1637.00000 1066.16667  34.9%     -    0s
     0     2 1066.16667    0   30 1637.00000 1066.16667  34.9%     -    0s
H  511    92                    1080.0000000 1070.00000  0.93%   6.0    0s

Cutting planes:
  Cover: 68
  MIR: 2
  Zero half: 4
  Lazy constraints: 79

Explored 1175 nodes (6097 simplex iterations) in 0.74 seconds
Thread count was 8 (of 8 available processors)

Optimal solution found (tolerance 1.00e-04)
Best objective 1.080000000000e+03, best bound 1.080000000000e+03, gap 0.0%
